(set-info :source |printed by MathSAT|)
(assert true)
(set-info :source |printed by MathSAT|)
(declare-fun x2 () Int)
(assert (let ((.def_15 (= x2 0)))
(let ((.def_16 (not .def_15)))
.def_16)))
(set-info :source |printed by MathSAT|)
(assert false)
